
Gurobi 7.0.2 (linux64, Matlab) logging started Sun Sep  2 08:55:49 2018


Gurobi 7.0.2 (linux64) logging started Sun Sep  2 08:55:49 2018

Optimize a model with 143236 rows, 135754 columns and 844834 nonzeros
Coefficient statistics:
  Matrix range     [1e+00, 3e+04]
  Objective range  [2e+03, 1e+04]
  Bounds range     [1e+00, 1e+05]
  RHS range        [1e+00, 3e+00]
Iteration    Objective       Primal Inf.    Dual Inf.      Time
       0    1.2200000e+05   0.000000e+00   0.000000e+00      0s

Solved in 0 iterations and 0.05 seconds
Optimal objective  1.220000000e+05
